50	400

275
386
129
835
900
664
230
850
456
893
35
227
641
162
431
321
682
113
390
565
904
696
671
819
974
231
586
227
270
506
612
842
95
254
496
62
915
221
371
171
922
839
373
216
855
662
485
602
745
338